NAME          cubeInHyperplane
*   Maximum: 30000 
*   Minimum: -2000

ROWS
 L  0
 L  1
 L  2
 E  3
 N  c
COLUMNS
    x0        0         1.             3         1.
    x0        c         -10.
    x1        1         1.             3         1.
    x1        c         -50.
    x2        2         1.             3         1.
    x2        c         -100.
    x3        3         1.             c         -150.
RHS
    b         0         200.           1         200.
    b         2         200.           3         600.
ENDATA
 